(set-info :Origin "This instance was generated by: BanditFuzz-- an RL fuzzer for SMT solvers" )
(set-info :Author "Joe Scott, Fed Mora, Vijay Ganesh" )
(set-info :Contact "Joe Scott, joseph.scott@uwaterloo.ca")
(set-logic QF_BV)
(declare-const bool_0 Bool)
(declare-const bool_1 Bool)
(declare-const bool_2 Bool)
(declare-const bool_3 Bool)
(declare-const bool_4 Bool)
(declare-const bv_0 (_ BitVec 32))
(declare-const bv_1 (_ BitVec 32))
(declare-const bv_2 (_ BitVec 32))
(declare-const bv_3 (_ BitVec 32))
(declare-const bv_4 (_ BitVec 32))
(assert (and (bvslt (bvnor #x6d5e3959  bv_2) (bvadd #xde5e5b52  #x6278fc65 )) (bvsge (bvxnor #x569fd204  bv_1) (bvand bv_1 bv_0))))
(assert (bvsgt (bvnor (bvnor #xa0c9d90a  bv_1) (bvashr #x959c8241  #x71c96a39 )) (bvadd (bvudiv bv_3 #x791bd6ce ) (bvand bv_1 bv_3))))
(assert (=> (bvule (bvashr #x9e3848b3  bv_0) (bvxor #xb550c19e  #x75711b08 )) (=> (bvsgt bv_1 #xd1734bd7 ) (xor bool_2 false))))
(assert (bvuge (bvsdiv (bvadd #x735f8ece  bv_3) (bvadd bv_4 #xbcff505d )) (bvashr (bvshl bv_4 bv_2) (bvxnor bv_3 #x969a60a4 ))))
(assert (bvuge (bvurem (bvor #x634a237f  bv_0) (bvmul bv_3 bv_1)) (bvshl (bvsmod #x1bcbbcc7  #x3a9617d5 ) (bvurem #xbc0c4122  bv_3))))
(check-sat)
(exit)
